Route #1: 11 10 3 4 9 7 8 5
Route #2: 36 35 18 71 6 12 16 13 17 2 19 15 1 14 33
Route #3: 32 54 55 41 57 56 39 68 40 38 37 69 67 66 65 62 64 63 59 58 61 60 34 31
Route #4: 20 29 30 21 22 28 27 42 43 44 46 53 45 52 48 47 50 70 51 49 25 24 26 23
cost 245
